p edge 50 117
e 0 19
e 0 26
e 0 29
e 0 37
e 1 23
e 1 24
e 1 28
e 2 15
e 2 32
e 2 41
e 2 46
e 2 48
e 3 11
e 3 24
e 3 30
e 3 40
e 4 24
e 4 40
e 4 43
e 5 22
e 5 30
e 6 41
e 6 46
e 7 33
e 7 40
e 7 41
e 8 13
e 8 25
e 8 43
e 9 22
e 9 47
e 10 11
e 10 16
e 10 25
e 10 27
e 10 29
e 11 12
e 11 13
e 11 23
e 11 31
e 11 38
e 12 30
e 12 35
e 12 40
e 13 14
e 13 18
e 13 27
e 13 37
e 13 43
e 13 44
e 14 22
e 14 41
e 14 46
e 16 31
e 16 33
e 16 36
e 16 43
e 17 23
e 17 26
e 17 27
e 17 38
e 18 23
e 18 27
e 18 28
e 18 30
e 18 42
e 19 32
e 19 39
e 19 41
e 19 43
e 20 23
e 20 28
e 20 30
e 20 41
e 21 24
e 21 30
e 21 33
e 21 39
e 21 40
e 21 48
e 22 44
e 22 48
e 23 24
e 23 31
e 23 35
e 23 48
e 24 46
e 25 29
e 25 30
e 25 35
e 25 41
e 25 46
e 26 36
e 26 47
e 27 35
e 28 38
e 28 49
e 29 42
e 31 37
e 31 48
e 32 36
e 32 38
e 32 39
e 32 44
e 32 49
e 33 34
e 33 41
e 33 43
e 33 44
e 34 40
e 35 36
e 35 37
e 37 49
e 39 41
e 41 44
e 41 49
e 42 46
